10
10
48	2	96	67	68	47	52	83	69	51	
86	29	96	16	60	57	22	12	92	26	
24	87	70	6	65	86	96	64	38	90	
31	89	62	67	37	69	66	91	71	17	
56	29	72	20	46	12	52	46	8	12	
11	97	62	46	83	55	67	37	86	60	
53	44	44	93	40	33	42	85	95	25	
49	86	55	93	80	29	97	67	3	18	
38	28	39	97	53	94	38	18	6	72	
31	50	41	84	82	83	73	34	95	34	